
Gurobi 12.0.2 (win64) logging started Sun Nov  9 15:17:16 2025

Set parameter LogFile to value "resultados DATA_1_n10m05b2d1\instancia_8_log.txt"
Set parameter TimeLimit to value 3600
Gurobi Optimizer version 12.0.2 build v12.0.2rc0 (win64 - Windows 10.0 (19045.2))

CPU model: Intel(R) Core(TM) i5-6300U CPU @ 2.40GHz, instruction set [SSE2|AVX|AVX2]
Thread count: 2 physical cores, 4 logical processors, using up to 4 threads

Non-default parameters:
TimeLimit  3600

Optimize a model with 405 rows, 1250 columns and 13758 nonzeros
Model fingerprint: 0x882640b2
Variable types: 0 continuous, 1250 integer (1250 binary)
Coefficient statistics:
  Matrix range     [1e+00, 1e+00]
  Objective range  [1e-02, 3e-02]
  Bounds range     [1e+00, 1e+00]
  RHS range        [1e+00, 4e+01]
Found heuristic solution: objective 0.8600000
Presolve removed 0 rows and 177 columns
Presolve time: 0.03s
Presolved: 405 rows, 1073 columns, 11653 nonzeros
Found heuristic solution: objective 0.6840000
Variable types: 0 continuous, 1073 integer (1073 binary)

Root relaxation: objective 9.600000e-01, 2269 iterations, 0.14 seconds (0.11 work units)

    Nodes    |    Current Node    |     Objective Bounds      |     Work
 Expl Unexpl |  Obj  Depth IntInf | Incumbent    BestBd   Gap | It/Node Time

H    0     0                       0.9600000    0.96000  0.00%     -    0s
     0     0    0.96000    0   13    0.96000    0.96000  0.00%     -    0s

Explored 1 nodes (2678 simplex iterations) in 0.23 seconds (0.17 work units)
Thread count was 4 (of 4 available processors)

Solution count 3: 0.96 0.86 0.684 
No other solutions better than 0.96

Optimal solution found (tolerance 1.00e-04)
Best objective 9.600000000000e-01, best bound 9.600000000000e-01, gap 0.0000%
